p cnf 327 788
c weights 1.0 1.0 2.718281828459045 0.36787944117144233 2.718281828459045 0.36787944117144233 2.718281828459045 0.36787944117144233 1.0 1.0 2.718281828459045 0.36787944117144233 2.718281828459045 0.36787944117144233 2.718281828459045 0.36787944117144233 1.0 1.0 2.718281828459045 0.36787944117144233 2.718281828459045 0.36787944117144233 2.718281828459045 0.36787944117144233 1.0 1.0 2.718281828459045 0.36787944117144233 2.718281828459045 0.36787944117144233 2.718281828459045 0.36787944117144233 2.718281828459045 0.36787944117144233 2.718281828459045 0.36787944117144233 2.718281828459045 0.36787944117144233 2.718281828459045 0.36787944117144233 1.0 1.0 2.718281828459045 0.36787944117144233 2.718281828459045 0.36787944117144233 2.718281828459045 0.36787944117144233 2.718281828459045 0.36787944117144233 2.718281828459045 0.36787944117144233 1.0 1.0 2.718281828459045 0.36787944117144233 2.718281828459045 0.36787944117144233 1.0 1.0 2.718281828459045 0.36787944117144233 2.718281828459045 0.36787944117144233 1.0 1.0 1.0 1.0 2.718281828459045 0.36787944117144233 2.718281828459045 0.36787944117144233 2.718281828459045 0.36787944117144233 1.0 1.0 2.718281828459045 0.36787944117144233 2.718281828459045 0.36787944117144233 1.0 1.0 2.718281828459045 0.36787944117144233 2.718281828459045 0.36787944117144233 2.718281828459045 0.36787944117144233 2.718281828459045 0.36787944117144233 1.0 1.0 2.718281828459045 0.36787944117144233 2.718281828459045 0.36787944117144233 2.718281828459045 0.36787944117144233 2.718281828459045 0.36787944117144233 1.0 1.0 2.718281828459045 0.36787944117144233 2.718281828459045 0.36787944117144233 2.718281828459045 0.36787944117144233 2.718281828459045 0.36787944117144233 1.0 1.0 2.718281828459045 0.36787944117144233 1.0 1.0 2.718281828459045 0.36787944117144233 2.718281828459045 0.36787944117144233 1.0 1.0 1.0 1.0 2.718281828459045 0.36787944117144233 2.718281828459045 0.36787944117144233 2.718281828459045 0.36787944117144233 2.718281828459045 0.36787944117144233 2.718281828459045 0.36787944117144233 1.0 1.0 2.718281828459045 0.36787944117144233 2.718281828459045 0.36787944117144233 2.718281828459045 0.36787944117144233 2.718281828459045 0.36787944117144233 1.0 1.0 2.718281828459045 0.36787944117144233 2.718281828459045 0.36787944117144233 1.0 1.0 2.718281828459045 0.36787944117144233 2.718281828459045 0.36787944117144233 2.718281828459045 0.36787944117144233 2.718281828459045 0.36787944117144233 1.0 1.0 2.718281828459045 0.36787944117144233 2.718281828459045 0.36787944117144233 2.718281828459045 0.36787944117144233 1.0 1.0 2.718281828459045 0.36787944117144233 2.718281828459045 0.36787944117144233 2.718281828459045 0.36787944117144233 1.0 1.0 2.718281828459045 0.36787944117144233 2.718281828459045 0.36787944117144233 1.0 1.0 2.718281828459045 0.36787944117144233 2.718281828459045 0.36787944117144233 1.0 1.0 2.718281828459045 0.36787944117144233 2.718281828459045 0.36787944117144233 2.718281828459045 0.36787944117144233 1.0 1.0 2.718281828459045 0.36787944117144233 2.718281828459045 0.36787944117144233 1.0 1.0 2.718281828459045 0.36787944117144233 2.718281828459045 0.36787944117144233 2.718281828459045 0.36787944117144233 2.718281828459045 0.36787944117144233 2.718281828459045 0.36787944117144233 1.0 1.0 1.0 1.0 2.718281828459045 0.36787944117144233 1.0 1.0 1.0 1.0 2.718281828459045 0.36787944117144233 2.718281828459045 0.36787944117144233 1.0 1.0 2.718281828459045 0.36787944117144233 2.718281828459045 0.36787944117144233 2.718281828459045 0.36787944117144233 2.718281828459045 0.36787944117144233 1.0 1.0 2.718281828459045 0.36787944117144233 2.718281828459045 0.36787944117144233 1.0 1.0 2.718281828459045 0.36787944117144233 2.718281828459045 0.36787944117144233 2.718281828459045 0.36787944117144233 2.718281828459045 0.36787944117144233 1.0 1.0 2.718281828459045 0.36787944117144233 2.718281828459045 0.36787944117144233 1.0 1.0 2.718281828459045 0.36787944117144233 1.0 1.0 2.718281828459045 0.36787944117144233 1.0 1.0 2.718281828459045 0.36787944117144233 2.718281828459045 0.36787944117144233 2.718281828459045 0.36787944117144233 1.0 1.0 2.718281828459045 0.36787944117144233 1.0 1.0 2.718281828459045 0.36787944117144233 2.718281828459045 0.36787944117144233 2.718281828459045 0.36787944117144233 1.0 1.0 2.718281828459045 0.36787944117144233 2.718281828459045 0.36787944117144233 2.718281828459045 0.36787944117144233 1.0 1.0 2.718281828459045 0.36787944117144233 1.0 1.0 2.718281828459045 0.36787944117144233 2.718281828459045 0.36787944117144233 2.718281828459045 0.36787944117144233 2.718281828459045 0.36787944117144233 2.718281828459045 0.36787944117144233 1.0 1.0 2.718281828459045 0.36787944117144233 2.718281828459045 0.36787944117144233 2.718281828459045 0.36787944117144233 1.0 1.0 2.718281828459045 0.36787944117144233 1.0 1.0 2.718281828459045 0.36787944117144233 2.718281828459045 0.36787944117144233 1.0 1.0 2.718281828459045 0.36787944117144233 2.718281828459045 0.36787944117144233 1.0 1.0 2.718281828459045 0.36787944117144233 2.718281828459045 0.36787944117144233 1.0 1.0 1.0 1.0 2.718281828459045 0.36787944117144233 2.718281828459045 0.36787944117144233 2.718281828459045 0.36787944117144233 1.0 1.0 1.0 1.0 2.718281828459045 0.36787944117144233 1.0 1.0 2.718281828459045 0.36787944117144233 2.718281828459045 0.36787944117144233 2.718281828459045 0.36787944117144233 2.718281828459045 0.36787944117144233 1.0 1.0 2.718281828459045 0.36787944117144233 2.718281828459045 0.36787944117144233 2.718281828459045 0.36787944117144233 2.718281828459045 0.36787944117144233 2.718281828459045 0.36787944117144233 1.0 1.0 2.718281828459045 0.36787944117144233 1.0 1.0 2.718281828459045 0.36787944117144233 2.718281828459045 0.36787944117144233 1.0 1.0 2.718281828459045 0.36787944117144233 2.718281828459045 0.36787944117144233 2.718281828459045 0.36787944117144233 2.718281828459045 0.36787944117144233 1.0 1.0 2.718281828459045 0.36787944117144233 1.0 1.0 1.0 1.0 2.718281828459045 0.36787944117144233 1.0 1.0 1.0 1.0 2.718281828459045 0.36787944117144233 1.0 1.0 2.718281828459045 0.36787944117144233 2.718281828459045 0.36787944117144233 1.0 1.0 2.718281828459045 0.36787944117144233 2.718281828459045 0.36787944117144233 1.0 1.0 1.0 1.0 2.718281828459045 0.36787944117144233 2.718281828459045 0.36787944117144233 2.718281828459045 0.36787944117144233 2.718281828459045 0.36787944117144233 1.0 1.0 2.718281828459045 0.36787944117144233 2.718281828459045 0.36787944117144233 1.0 1.0 1.0 1.0 1.0 1.0 1.0 1.0 2.718281828459045 0.36787944117144233 1.0 1.0 2.718281828459045 0.36787944117144233 1.0 1.0 2.718281828459045 0.36787944117144233 2.718281828459045 0.36787944117144233 2.718281828459045 0.36787944117144233 1.0 1.0 1.0 1.0 2.718281828459045 0.36787944117144233 2.718281828459045 0.36787944117144233 2.718281828459045 0.36787944117144233 1.0 1.0 2.718281828459045 0.36787944117144233 2.718281828459045 0.36787944117144233 2.718281828459045 0.36787944117144233 1.0 1.0 2.718281828459045 0.36787944117144233 1.0 1.0 2.718281828459045 0.36787944117144233 1.0 1.0 1.0 1.0 2.718281828459045 0.36787944117144233 1.0 1.0 2.718281828459045 0.36787944117144233 2.718281828459045 0.36787944117144233 1.0 1.0 1.0 1.0 2.718281828459045 0.36787944117144233 1.0 1.0 1.0 1.0 2.718281828459045 0.36787944117144233 2.718281828459045 0.36787944117144233 1.0 1.0 2.718281828459045 0.36787944117144233 1.0 1.0 1.0 1.0 2.718281828459045 0.36787944117144233 2.718281828459045 0.36787944117144233 1.0 1.0 2.718281828459045 0.36787944117144233 2.718281828459045 0.36787944117144233 1.0 1.0 1.0 1.0 1.0 1.0 2.718281828459045 0.36787944117144233 1.0 1.0 1.0 1.0 2.718281828459045 0.36787944117144233 1.0 1.0 2.718281828459045 0.36787944117144233 2.718281828459045 0.36787944117144233 1.0 1.0 2.718281828459045 0.36787944117144233 1.0 1.0 1.0 1.0 1.0 1.0 2.718281828459045 0.36787944117144233 1.0 1.0 2.718281828459045 0.36787944117144233 2.718281828459045 0.36787944117144233 1.0 1.0 1.0 1.0 1.0 1.0 1.0 1.0 1.0 1.0 1.0 1.0 2.718281828459045 0.36787944117144233 2.718281828459045 0.36787944117144233 1.0 1.0 2.718281828459045 0.36787944117144233 1.0 1.0 1.0 1.0 2.718281828459045 0.36787944117144233 1.0 1.0 1.0 1.0 2.718281828459045 0.36787944117144233 1.0 1.0 2.718281828459045 0.36787944117144233 1.0 1.0 1.0 1.0 1.0 1.0 1.0 1.0 2.718281828459045 0.36787944117144233 1.0 1.0 1.0 1.0 1.0 1.0 1.0 1.0 2.718281828459045 0.36787944117144233 2.718281828459045 0.36787944117144233 1.0 1.0 1.0 1.0 1.0 1.0 1.0 1.0 1.0 1.0 1.0 1.0 1.0 1.0 1.0 1.0 1.0 1.0 1.0 1.0
2 1 76 0
2 -1 -76 0
-2 1 -76 0
-2 -1 76 0
3 1 120 0
3 -1 -120 0
-3 1 -120 0
-3 -1 120 0
4 1 310 0
4 -1 -310 0
-4 1 -310 0
-4 -1 310 0
6 5 157 0
6 -5 -157 0
-6 5 -157 0
-6 -5 157 0
7 5 163 0
7 -5 -163 0
-7 5 -163 0
-7 -5 163 0
8 5 203 0
8 -5 -203 0
-8 5 -203 0
-8 -5 203 0
10 9 41 0
10 -9 -41 0
-10 9 -41 0
-10 -9 41 0
11 9 109 0
11 -9 -109 0
-11 9 -109 0
-11 -9 109 0
12 9 166 0
12 -9 -166 0
-12 9 -166 0
-12 -9 166 0
14 13 161 0
14 -13 -161 0
-14 13 -161 0
-14 -13 161 0
15 13 244 0
15 -13 -244 0
-15 13 -244 0
-15 -13 244 0
16 13 255 0
16 -13 -255 0
-16 13 -255 0
-16 -13 255 0
17 13 258 0
17 -13 -258 0
-17 13 -258 0
-17 -13 258 0
18 13 294 0
18 -13 -294 0
-18 13 -294 0
-18 -13 294 0
19 13 314 0
19 -13 -314 0
-19 13 -314 0
-19 -13 314 0
20 13 325 0
20 -13 -325 0
-20 13 -325 0
-20 -13 325 0
22 21 81 0
22 -21 -81 0
-22 21 -81 0
-22 -21 81 0
23 21 204 0
23 -21 -204 0
-23 21 -204 0
-23 -21 204 0
24 21 215 0
24 -21 -215 0
-24 21 -215 0
-24 -21 215 0
25 21 282 0
25 -21 -282 0
-25 21 -282 0
-25 -21 282 0
26 21 299 0
26 -21 -299 0
-26 21 -299 0
-26 -21 299 0
28 27 172 0
28 -27 -172 0
-28 27 -172 0
-28 -27 172 0
29 27 203 0
29 -27 -203 0
-29 27 -203 0
-29 -27 203 0
31 30 207 0
31 -30 -207 0
-31 30 -207 0
-31 -30 207 0
32 30 290 0
32 -30 -290 0
-32 30 -290 0
-32 -30 290 0
35 34 102 0
35 -34 -102 0
-35 34 -102 0
-35 -34 102 0
36 34 166 0
36 -34 -166 0
-36 34 -166 0
-36 -34 166 0
37 34 297 0
37 -34 -297 0
-37 34 -297 0
-37 -34 297 0
39 38 115 0
39 -38 -115 0
-39 38 -115 0
-39 -38 115 0
40 38 248 0
40 -38 -248 0
-40 38 -248 0
-40 -38 248 0
42 41 141 0
42 -41 -141 0
-42 41 -141 0
-42 -41 141 0
43 41 212 0
43 -41 -212 0
-43 41 -212 0
-43 -41 212 0
44 41 254 0
44 -41 -254 0
-44 41 -254 0
-44 -41 254 0
45 41 257 0
45 -41 -257 0
-45 41 -257 0
-45 -41 257 0
47 46 149 0
47 -46 -149 0
-47 46 -149 0
-47 -46 149 0
48 46 191 0
48 -46 -191 0
-48 46 -191 0
-48 -46 191 0
49 46 270 0
49 -46 -270 0
-49 46 -270 0
-49 -46 270 0
50 46 322 0
50 -46 -322 0
-50 46 -322 0
-50 -46 322 0
52 51 92 0
52 -51 -92 0
-52 51 -92 0
-52 -51 92 0
53 51 169 0
53 -51 -169 0
-53 51 -169 0
-53 -51 169 0
54 51 191 0
54 -51 -191 0
-54 51 -191 0
-54 -51 191 0
55 51 271 0
55 -51 -271 0
-55 51 -271 0
-55 -51 271 0
57 56 133 0
57 -56 -133 0
-57 56 -133 0
-57 -56 133 0
59 58 120 0
59 -58 -120 0
-59 58 -120 0
-59 -58 120 0
60 58 229 0
60 -58 -229 0
-60 58 -229 0
-60 -58 229 0
63 62 169 0
63 -62 -169 0
-63 62 -169 0
-63 -62 169 0
64 62 215 0
64 -62 -215 0
-64 62 -215 0
-64 -62 215 0
65 62 240 0
65 -62 -240 0
-65 62 -240 0
-65 -62 240 0
66 62 289 0
66 -62 -289 0
-66 62 -289 0
-66 -62 289 0
67 62 322 0
67 -62 -322 0
-67 62 -322 0
-67 -62 322 0
69 68 141 0
69 -68 -141 0
-69 68 -141 0
-69 -68 141 0
70 68 151 0
70 -68 -151 0
-70 68 -151 0
-70 -68 151 0
71 68 227 0
71 -68 -227 0
-71 68 -227 0
-71 -68 227 0
72 68 322 0
72 -68 -322 0
-72 68 -322 0
-72 -68 322 0
74 73 251 0
74 -73 -251 0
-74 73 -251 0
-74 -73 251 0
75 73 308 0
75 -73 -308 0
-75 73 -308 0
-75 -73 308 0
77 76 115 0
77 -76 -115 0
-77 76 -115 0
-77 -76 115 0
78 76 169 0
78 -76 -169 0
-78 76 -169 0
-78 -76 169 0
79 76 216 0
79 -76 -216 0
-79 76 -216 0
-79 -76 216 0
80 76 264 0
80 -76 -264 0
-80 76 -264 0
-80 -76 264 0
82 81 257 0
82 -81 -257 0
-82 81 -257 0
-82 -81 257 0
83 81 294 0
83 -81 -294 0
-83 81 -294 0
-83 -81 294 0
84 81 323 0
84 -81 -323 0
-84 81 -323 0
-84 -81 323 0
86 85 135 0
86 -85 -135 0
-86 85 -135 0
-86 -85 135 0
87 85 294 0
87 -85 -294 0
-87 85 -294 0
-87 -85 294 0
88 85 307 0
88 -85 -307 0
-88 85 -307 0
-88 -85 307 0
90 89 193 0
90 -89 -193 0
-90 89 -193 0
-90 -89 193 0
91 89 263 0
91 -89 -263 0
-91 89 -263 0
-91 -89 263 0
93 92 163 0
93 -92 -163 0
-93 92 -163 0
-93 -92 163 0
94 92 229 0
94 -92 -229 0
-94 92 -229 0
-94 -92 229 0
96 95 123 0
96 -95 -123 0
-96 95 -123 0
-96 -95 123 0
97 95 141 0
97 -95 -141 0
-97 95 -141 0
-97 -95 141 0
98 95 284 0
98 -95 -284 0
-98 95 -284 0
-98 -95 284 0
100 99 236 0
100 -99 -236 0
-100 99 -236 0
-100 -99 236 0
101 99 302 0
101 -99 -302 0
-101 99 -302 0
-101 -99 302 0
103 102 133 0
103 -102 -133 0
-103 102 -133 0
-103 -102 133 0
104 102 225 0
104 -102 -225 0
-104 102 -225 0
-104 -102 225 0
105 102 293 0
105 -102 -293 0
-105 102 -293 0
-105 -102 293 0
106 102 297 0
106 -102 -297 0
-106 102 -297 0
-106 -102 297 0
107 102 299 0
107 -102 -299 0
-107 102 -299 0
-107 -102 299 0
110 109 196 0
110 -109 -196 0
-110 109 -196 0
-110 -109 196 0
113 112 292 0
113 -112 -292 0
-113 112 -292 0
-113 -112 292 0
114 112 300 0
114 -112 -300 0
-114 112 -300 0
-114 -112 300 0
116 115 177 0
116 -115 -177 0
-116 115 -177 0
-116 -115 177 0
117 115 227 0
117 -115 -227 0
-117 115 -227 0
-117 -115 227 0
118 115 231 0
118 -115 -231 0
-118 115 -231 0
-118 -115 231 0
119 115 270 0
119 -115 -270 0
-119 115 -270 0
-119 -115 270 0
121 120 131 0
121 -120 -131 0
-121 120 -131 0
-121 -120 131 0
122 120 264 0
122 -120 -264 0
-122 120 -264 0
-122 -120 264 0
124 123 207 0
124 -123 -207 0
-124 123 -207 0
-124 -123 207 0
125 123 212 0
125 -123 -212 0
-125 123 -212 0
-125 -123 212 0
126 123 224 0
126 -123 -224 0
-126 123 -224 0
-126 -123 224 0
127 123 313 0
127 -123 -313 0
-127 123 -313 0
-127 -123 313 0
129 128 212 0
129 -128 -212 0
-129 128 -212 0
-129 -128 212 0
130 128 309 0
130 -128 -309 0
-130 128 -309 0
-130 -128 309 0
132 131 305 0
132 -131 -305 0
-132 131 -305 0
-132 -131 305 0
134 133 157 0
134 -133 -157 0
-134 133 -157 0
-134 -133 157 0
136 135 193 0
136 -135 -193 0
-136 135 -193 0
-136 -135 193 0
137 135 235 0
137 -135 -235 0
-137 135 -235 0
-137 -135 235 0
138 135 326 0
138 -135 -326 0
-138 135 -326 0
-138 -135 326 0
140 139 305 0
140 -139 -305 0
-140 139 -305 0
-140 -139 305 0
142 141 206 0
142 -141 -206 0
-142 141 -206 0
-142 -141 206 0
143 141 225 0
143 -141 -225 0
-143 141 -225 0
-143 -141 225 0
144 141 270 0
144 -141 -270 0
-144 141 -270 0
-144 -141 270 0
146 145 177 0
146 -145 -177 0
-146 145 -177 0
-146 -145 177 0
147 145 291 0
147 -145 -291 0
-147 145 -291 0
-147 -145 291 0
148 145 318 0
148 -145 -318 0
-148 145 -318 0
-148 -145 318 0
150 149 291 0
150 -149 -291 0
-150 149 -291 0
-150 -149 291 0
152 151 166 0
152 -151 -166 0
-152 151 -166 0
-152 -151 166 0
153 151 177 0
153 -151 -177 0
-153 151 -177 0
-153 -151 177 0
154 151 191 0
154 -151 -191 0
-154 151 -191 0
-154 -151 191 0
155 151 246 0
155 -151 -246 0
-155 151 -246 0
-155 -151 246 0
156 151 297 0
156 -151 -297 0
-156 151 -297 0
-156 -151 297 0
158 157 221 0
158 -157 -221 0
-158 157 -221 0
-158 -157 221 0
159 157 272 0
159 -157 -272 0
-159 157 -272 0
-159 -157 272 0
160 157 299 0
160 -157 -299 0
-160 157 -299 0
-160 -157 299 0
162 161 307 0
162 -161 -307 0
-162 161 -307 0
-162 -161 307 0
164 163 203 0
164 -163 -203 0
-164 163 -203 0
-164 -163 203 0
165 163 322 0
165 -163 -322 0
-165 163 -322 0
-165 -163 322 0
167 166 307 0
167 -166 -307 0
-167 166 -307 0
-167 -166 307 0
168 166 319 0
168 -166 -319 0
-168 166 -319 0
-168 -166 319 0
170 169 227 0
170 -169 -227 0
-170 169 -227 0
-170 -169 227 0
171 169 229 0
171 -169 -229 0
-171 169 -229 0
-171 -169 229 0
174 173 283 0
174 -173 -283 0
-174 173 -283 0
-174 -173 283 0
175 173 293 0
175 -173 -293 0
-175 173 -293 0
-175 -173 293 0
176 173 327 0
176 -173 -327 0
-176 173 -327 0
-176 -173 327 0
179 178 293 0
179 -178 -293 0
-179 178 -293 0
-179 -178 293 0
181 180 185 0
181 -180 -185 0
-181 180 -185 0
-181 -180 185 0
182 180 203 0
182 -180 -203 0
-182 180 -203 0
-182 -180 203 0
183 180 248 0
183 -180 -248 0
-183 180 -248 0
-183 -180 248 0
184 180 297 0
184 -180 -297 0
-184 180 -297 0
-184 -180 297 0
186 185 229 0
186 -185 -229 0
-186 185 -229 0
-186 -185 229 0
187 185 235 0
187 -185 -235 0
-187 185 -235 0
-187 -185 235 0
188 185 282 0
188 -185 -282 0
-188 185 -282 0
-188 -185 282 0
189 185 313 0
189 -185 -313 0
-189 185 -313 0
-189 -185 313 0
190 185 325 0
190 -185 -325 0
-190 185 -325 0
-190 -185 325 0
192 191 297 0
192 -191 -297 0
-192 191 -297 0
-192 -191 297 0
194 193 254 0
194 -193 -254 0
-194 193 -254 0
-194 -193 254 0
195 193 284 0
195 -193 -284 0
-195 193 -284 0
-195 -193 284 0
197 196 224 0
197 -196 -224 0
-197 196 -224 0
-197 -196 224 0
198 196 280 0
198 -196 -280 0
-198 196 -280 0
-198 -196 280 0
199 196 305 0
199 -196 -305 0
-199 196 -305 0
-199 -196 305 0
200 196 312 0
200 -196 -312 0
-200 196 -312 0
-200 -196 312 0
202 201 319 0
202 -201 -319 0
-202 201 -319 0
-202 -201 319 0
205 204 272 0
205 -204 -272 0
-205 204 -272 0
-205 -204 272 0
208 207 307 0
208 -207 -307 0
-208 207 -307 0
-208 -207 307 0
210 209 215 0
210 -209 -215 0
-210 209 -215 0
-210 -209 215 0
211 209 327 0
211 -209 -327 0
-211 209 -327 0
-211 -209 327 0
213 212 255 0
213 -212 -255 0
-213 212 -255 0
-213 -212 255 0
214 212 314 0
214 -212 -314 0
-214 212 -314 0
-214 -212 314 0
217 216 258 0
217 -216 -258 0
-217 216 -258 0
-217 -216 258 0
218 216 284 0
218 -216 -284 0
-218 216 -284 0
-218 -216 284 0
219 216 320 0
219 -216 -320 0
-219 216 -320 0
-219 -216 320 0
220 216 324 0
220 -216 -324 0
-220 216 -324 0
-220 -216 324 0
222 221 235 0
222 -221 -235 0
-222 221 -235 0
-222 -221 235 0
223 221 271 0
223 -221 -271 0
-223 221 -271 0
-223 -221 271 0
228 227 249 0
228 -227 -249 0
-228 227 -249 0
-228 -227 249 0
230 229 267 0
230 -229 -267 0
-230 229 -267 0
-230 -229 267 0
232 231 255 0
232 -231 -255 0
-232 231 -255 0
-232 -231 255 0
233 231 275 0
233 -231 -275 0
-233 231 -275 0
-233 -231 275 0
234 231 291 0
234 -231 -291 0
-234 231 -291 0
-234 -231 291 0
237 236 274 0
237 -236 -274 0
-237 236 -274 0
-237 -236 274 0
238 236 307 0
238 -236 -307 0
-238 236 -307 0
-238 -236 307 0
239 236 319 0
239 -236 -319 0
-239 236 -319 0
-239 -236 319 0
241 240 277 0
241 -240 -277 0
-241 240 -277 0
-241 -240 277 0
242 240 294 0
242 -240 -294 0
-242 240 -294 0
-242 -240 294 0
243 240 322 0
243 -240 -322 0
-243 240 -322 0
-243 -240 322 0
245 244 315 0
245 -244 -315 0
-245 244 -315 0
-245 -244 315 0
247 246 283 0
247 -246 -283 0
-247 246 -283 0
-247 -246 283 0
250 249 289 0
250 -249 -289 0
-250 249 -289 0
-250 -249 289 0
252 251 282 0
252 -251 -282 0
-252 251 -282 0
-252 -251 282 0
253 251 324 0
253 -251 -324 0
-253 251 -324 0
-253 -251 324 0
256 255 303 0
256 -255 -303 0
-256 255 -303 0
-256 -255 303 0
259 258 290 0
259 -258 -290 0
-259 258 -290 0
-259 -258 290 0
260 258 320 0
260 -258 -320 0
-260 258 -320 0
-260 -258 320 0
262 261 321 0
262 -261 -321 0
-262 261 -321 0
-262 -261 321 0
265 264 302 0
265 -264 -302 0
-265 264 -302 0
-265 -264 302 0
266 264 309 0
266 -264 -309 0
-266 264 -309 0
-266 -264 309 0
268 267 300 0
268 -267 -300 0
-268 267 -300 0
-268 -267 300 0
269 267 327 0
269 -267 -327 0
-269 267 -327 0
-269 -267 327 0
273 272 321 0
273 -272 -321 0
-273 272 -321 0
-273 -272 321 0
276 275 310 0
276 -275 -310 0
-276 275 -310 0
-276 -275 310 0
278 277 299 0
278 -277 -299 0
-278 277 -299 0
-278 -277 299 0
279 277 322 0
279 -277 -322 0
-279 277 -322 0
-279 -277 322 0
281 280 286 0
281 -280 -286 0
-281 280 -286 0
-281 -280 286 0
285 284 319 0
285 -284 -319 0
-285 284 -319 0
-285 -284 319 0
287 286 300 0
287 -286 -300 0
-287 286 -300 0
-287 -286 300 0
288 286 325 0
288 -286 -325 0
-288 286 -325 0
-288 -286 325 0
295 294 307 0
295 -294 -307 0
-295 294 -307 0
-295 -294 307 0
296 294 314 0
296 -294 -314 0
-296 294 -314 0
-296 -294 314 0
298 297 303 0
298 -297 -303 0
-298 297 -303 0
-298 -297 303 0
301 300 315 0
301 -300 -315 0
-301 300 -315 0
-301 -300 315 0
304 303 318 0
304 -303 -318 0
-304 303 -318 0
-304 -303 318 0
306 305 310 0
306 -305 -310 0
-306 305 -310 0
-306 -305 310 0
311 310 325 0
311 -310 -325 0
-311 310 -325 0
-311 -310 325 0
316 315 324 0
316 -315 -324 0
-316 315 -324 0
-316 -315 324 0
317 315 325 0
317 -315 -325 0
-317 315 -325 0
-317 -315 325 0
